NAME : hola//resumen/Partial_Problem_1_3.txt
COMMENT : 
TYPE : TSP
DIMENSION : 12
EDGE_WEIGHT_TYPE : GEOM
NODE_COORD_SECTION
1	30	40
2	7	38
3	5	25
4	10	17
5	5	6
6	13	13
7	21	10
8	30	15
9	27	23
10	32	22
11	36	16
12	39	10
EOF
